NAME : kroE100.25786.tour
COMMENT : Cost = 0_25786
COMMENT : Found by LKH [Keld Helsgaun] Thu Nov 16 16:24:24 2017
TYPE : TOUR
DIMENSION : 109
TOUR_SECTION
1
21
101
7
102
83
103
76
104
69
105
12
106
51
107
47
3
46
26
79
16
73
61
71
81
89
14
52
44
72
68
38
33
48
90
42
5
8
65
31
66
30
93
55
91
39
22
86
43
19
94
18
24
29
100
78
53
34
6
70
37
77
85
96
11
2
4
82
92
27
67
87
41
75
13
9
57
80
10
60
50
97
25
54
45
99
17
84
40
35
88
108
98
59
95
36
28
64
23
15
20
56
49
62
63
58
32
109
74
-1
EOF
